\ENCODING=ISO-8859-1
\Problem name: ilog.cplex

Minimize
 obj1: 96894 x1 + 95295 x2 + 104254 x3 + 94232 x4 + 96973 x5 + 94115 x6
       + 100987 x7 + 97422 x8 + 99295 x9 + 102947 x10 + 92241 x11 + 108474 x12
       + 108902 x13 + 107386 x14 + 104011 x15 + 107643 x16 + 99666 x17
       + 105272 x18 + 101112 x19 + 109088 x20 + 109269 x21 + 93870 x22
       + 92918 x23 + 108742 x24 + 104221 x25 + 101782 x26 + 91767 x27
       + 104580 x28 + 94812 x29 + 107914 x30 + 105752 x31 + 106314 x32
       + 109903 x33 + 91885 x34 + 92911 x35 + 101402 x36 + 107107 x37
       + 102951 x38 + 94793 x39 + 104770 x40 + 95186 x41 + 97790 x42
       + 103996 x43 + 90728 x44 + 102376 x45 + 101445 x46 + 102407 x47
       + 107328 x48 + 96876 x49 + 90267 x50 + 100852 x51 + 95775 x52
       + 100327 x53 + 107353 x54 + 94824 x55 + 107327 x56 + 108344 x57
       + 103919 x58 + 95658 x59 + 108690 x60 + 103163 x61 + 91728 x62
       + 100883 x63 + 90832 x64 + 108855 x65 + 107205 x66 + 100587 x67
       + 103630 x68 + 90202 x69 + 109346 x70 + 101533 x71 + 105487 x72
       + 107955 x73 + 92868 x74 + 105046 x75 + 92306 x76 + 95976 x77
       + 109111 x78 + 96441 x79 + 95592 x80 + 94285 x81 + 96744 x82 + 93893 x83
       + 97895 x84 + 100000 x85 + 93060 x86 + 95492 x87 + 97898 x88 + 96768 x89
       + 101079 x90 + 94600 x91 + 107151 x92 + 92544 x93 + 107666 x94
       + 105746 x95 + 95804 x96 + 95416 x97 + 103541 x98 + 95893 x99
       + 105612 x100 + 95119 x101 + 99448 x102 + 102501 x103 + 107945 x104
       + 94086 x105 + 94911 x106 + 99325 x107 + 104514 x108 + 102085 x109
       + 106548 x110 + 90546 x111 + 99203 x112 + 109643 x113 + 105792 x114
       + 105251 x115 + 108539 x116 + 109375 x117 + 102106 x118 + 93158 x119
       + 109925 x120 + 99292 x121 + 96734 x122 + 97437 x123 + 103133 x124
       + 100759 x125 + 102245 x126 + 94528 x127 + 107501 x128 + 99567 x129
       + 94458 x130 + 95762 x131 + 91928 x132 + 90154 x133 + 109488 x134
       + 97460 x135 + 93649 x136 + 100208 x137 + 95337 x138 + 93732 x139
       + 101382 x140 + 95743 x141 + 94874 x142 + 109298 x143 + 98545 x144
       + 95153 x145 + 94991 x146 + 108481 x147 + 103102 x148 + 94887 x149
       + 105363 x150 + 109461 x151 + 94105 x152 + 100105 x153 + 90514 x154
       + 100350 x155 + 90270 x156 + 106641 x157 + 92405 x158 + 94269 x159
       + 102799 x160 + 104593 x161 + 104705 x162 + 106120 x163 + 108785 x164
       + 93504 x165 + 103837 x166 + 92726 x167 + 103231 x168 + 99827 x169
       + 100162 x170 + 102078 x171 + 90342 x172 + 94572 x173 + 102195 x174
       + 109788 x175 + 90630 x176 + 103662 x177 + 95278 x178 + 97566 x179
       + 92001 x180 + 102885 x181 + 97190 x182 + 92793 x183 + 108010 x184
       + 96339 x185 + 103506 x186 + 103109 x187 + 97110 x188 + 104970 x189
       + 91471 x190 + 105428 x191 + 103018 x192 + 100102 x193 + 92724 x194
       + 104921 x195 + 98176 x196 + 105770 x197 + 92447 x198 + 106221 x199
       + 109833 x200 + 101409 x201 + 101153 x202 + 97036 x203 + 107917 x204
       + 90575 x205 + 105998 x206 + 104602 x207 + 106031 x208 + 109867 x209
       + 98064 x210 + 97551 x211 + 99042 x212 + 95688 x213 + 91331 x214
       + 98533 x215 + 103791 x216 + 107182 x217 + 107404 x218 + 101917 x219
       + 93999 x220 + 107739 x221 + 107430 x222 + 95986 x223 + 97767 x224
       + 108795 x225 + 99706 x226 + 106440 x227 + 103023 x228 + 98084 x229
       + 95236 x230 + 96741 x231 + 91933 x232 + 92674 x233 + 98709 x234
       + 104303 x235 + 98307 x236 + 90869 x237 + 98145 x238 + 100607 x239
       + 105639 x240 + 106455 x241 + 92875 x242 + 98027 x243 + 97649 x244
       + 93803 x245 + 96604 x246 + 106491 x247 + 98075 x248 + 92962 x249
       + 109951 x250 + 95163 x251 + 97084 x252 + 106606 x253 + 101061 x254
       + 104656 x255 + 102757 x256 + 107789 x257 + 91492 x258 + 94548 x259
       + 109878 x260 + 92818 x261 + 93803 x262 + 94546 x263 + 91848 x264
       + 101719 x265 + 95413 x266 + 106353 x267 + 100224 x268 + 95095 x269
       + 90804 x270 + 104166 x271 + 106746 x272 + 107085 x273 + 98067 x274
       + 92916 x275 + 107114 x276 + 91564 x277 + 106819 x278 + 102546 x279
       + 105759 x280 + 100219 x281 + 95565 x282 + 99953 x283 + 97409 x284
       + 102222 x285 + 93457 x286 + 104123 x287 + 103492 x288 + 97027 x289
       + 93956 x290 + 94546 x291 + 109208 x292 + 104090 x293 + 96005 x294
       + 108183 x295 + 100608 x296 + 96397 x297 + 92137 x298 + 106043 x299
       + 100055 x300 + 103170 x301 + 91743 x302 + 107168 x303 + 92464 x304
       + 90709 x305 + 92316 x306 + 105566 x307 + 96876 x308 + 104747 x309
       + 97012 x310 + 106446 x311 + 99977 x312 + 100148 x313 + 108014 x314
       + 108330 x315 + 94858 x316 + 109504 x317 + 98488 x318 + 96186 x319
       + 108040 x320 + 92540 x321 + 106286 x322 + 99083 x323 + 101685 x324
       + 99474 x325 + 108707 x326 + 100669 x327 + 97762 x328 + 101864 x329
       + 90157 x330 + 98930 x331 + 105576 x332 + 94211 x333 + 103832 x334
       + 91697 x335 + 106095 x336 + 104898 x337 + 108350 x338 + 100009 x339
       + 99218 x340 + 96028 x341 + 90799 x342 + 92730 x343 + 93394 x344
       + 98264 x345 + 108755 x346 + 102687 x347 + 90937 x348 + 99032 x349
       + 95563 x350 + 95544 x351 + 103485 x352 + 94998 x353 + 105148 x354
       + 108784 x355 + 105017 x356 + 108143 x357 + 103062 x358 + 108755 x359
       + 90673 x360 + 101119 x361 + 95338 x362 + 90275 x363 + 108072 x364
       + 95510 x365 + 106354 x366 + 90177 x367 + 109499 x368 + 108271 x369
       + 109223 x370 + 98529 x371 + 96928 x372 + 101799 x373 + 107486 x374
       + 104370 x375 + 104001 x376 + 92849 x377 + 91308 x378 + 96677 x379
       + 90419 x380 + 107089 x381 + 109478 x382 + 108624 x383 + 107355 x384
       + 106280 x385 + 107010 x386 + 91179 x387 + 91242 x388 + 95860 x389
       + 92197 x390 + 90725 x391 + 97713 x392 + 102158 x393 + 96697 x394
       + 104596 x395 + 97465 x396 + 90474 x397 + 97540 x398 + 98314 x399
       + 101484 x400 + 104320 x401 + 98684 x402 + 104303 x403 + 108698 x404
       + 91008 x405 + 101571 x406 + 95169 x407 + 109683 x408 + 105745 x409
       + 107725 x410 + 93444 x411 + 92928 x412 + 108580 x413 + 97229 x414
       + 96981 x415 + 100499 x416 + 90134 x417 + 102585 x418 + 109442 x419
       + 92969 x420 + 93782 x421 + 91761 x422 + 94220 x423 + 103825 x424
       + 109728 x425 + 91019 x426 + 108447 x427 + 95801 x428 + 96058 x429
       + 105387 x430 + 107122 x431 + 109814 x432 + 108125 x433 + 102892 x434
       + 108945 x435 + 93269 x436 + 99511 x437 + 97654 x438 + 102670 x439
       + 101257 x440 + 95340 x441 + 96429 x442 + 105611 x443 + 101519 x444
       + 91848 x445 + 103421 x446 + 104384 x447 + 102053 x448 + 104887 x449
       + 108948 x450 + 98984 x451 + 105740 x452 + 90383 x453 + 92316 x454
       + 94655 x455 + 103333 x456 + 105728 x457 + 95512 x458 + 103433 x459
       + 100440 x460 + 102901 x461 + 99681 x462 + 97077 x463 + 93374 x464
       + 96069 x465 + 93179 x466 + 105306 x467 + 107701 x468 + 101291 x469
       + 95372 x470 + 108714 x471 + 108957 x472 + 93141 x473 + 100692 x474
       + 109639 x475 + 95810 x476 + 97500 x477 + 103776 x478 + 95490 x479
       + 105003 x480 + 109391 x481 + 90439 x482 + 105457 x483 + 92106 x484
       + 98982 x485 + 104216 x486 + 108575 x487 + 92459 x488 + 93749 x489
       + 98885 x490 + 98818 x491 + 92626 x492 + 100282 x493 + 103620 x494
       + 91157 x495 + 94275 x496 + 95310 x497 + 99347 x498 + 101472 x499
       + 29749 x500 + 40448 x501 + 40860 x502 + 36862 x503 + 38637 x504
       + 43145 x505 + 42927 x506 + 39286 x507 + 36796 x508 + 36927 x509
       + 42562 x510 + 43700 x511 + 39943 x512 + 36658 x513 + 43893 x514
       + 43266 x515 + 36822 x516 + 42516 x517 + 42262 x518 + 40811 x519
       + 38047 x520 + 43177 x521 + 38617 x522 + 38192 x523 + 43036 x524
       + 43285 x525 + 38285 x526 + 38634 x527 + 38129 x528 + 42061 x529
       + 37554 x530 + 37678 x531 + 40031 x532 + 39627 x533 + 41589 x534
       + 41436 x535 + 37210 x536 + 38053 x537 + 36124 x538 + 38654 x539
       + 43160 x540 + 43331 x541 + 40978 x542 + 37690 x543 + 39431 x544
       + 38431 x545 + 41847 x546 + 40784 x547 + 41090 x548 + 42283 x549
       + 33235 x550
Subject To
 c1:   - x3 - x14 - x17 - x19 - x20 - x21 + x38 + x41  = 0
 c2:   - x53 - x64 - x67 - x69 - x70 - x71 + x88 + x91  = 0
 c3:   - x103 - x114 - x117 - x119 - x120 - x121 + x138 + x141  = 0
 c4:   - x153 - x164 - x167 - x169 - x170 - x171 + x188 + x191  = 0
 c5:   - x203 - x214 - x217 - x219 - x220 - x221 + x238 + x241  = 0
 c6:   - x253 - x264 - x267 - x269 - x270 - x271 + x288 + x291  = 0
 c7:   - x303 - x314 - x317 - x319 - x320 - x321 + x338 + x341  = 0
 c8:   - x353 - x364 - x367 - x369 - x370 - x371 + x388 + x391  = 0
 c9:   - x403 - x414 - x417 - x419 - x420 - x421 + x438 + x441  = 0
 c10:  - x453 - x464 - x467 - x469 - x470 - x471 + x488 + x491  = 0
 c11:  x7 - x9 + x10 - x27 - x28 - x39 + x40 + x46  = 0
 c12:  x57 - x59 + x60 - x77 - x78 - x89 + x90 + x96  = 0
 c13:  x107 - x109 + x110 - x127 - x128 - x139 + x140 + x146  = 0
 c14:  x157 - x159 + x160 - x177 - x178 - x189 + x190 + x196  = 0
 c15:  x207 - x209 + x210 - x227 - x228 - x239 + x240 + x246  = 0
 c16:  x257 - x259 + x260 - x277 - x278 - x289 + x290 + x296  = 1
 c17:  x307 - x309 + x310 - x327 - x328 - x339 + x340 + x346  = 0
 c18:  x357 - x359 + x360 - x377 - x378 - x389 + x390 + x396  = 0
 c19:  x407 - x409 + x410 - x427 - x428 - x439 + x440 + x446  = 0
 c20:  x457 - x459 + x460 - x477 - x478 - x489 + x490 + x496  = 0
 c21:  x8 - x16 - x18 + x23 + x32 + x44  = 0
 c22:  x58 - x66 - x68 + x73 + x82 + x94  = -1
 c23:  x108 - x116 - x118 + x123 + x132 + x144  = 0
 c24:  x158 - x166 - x168 + x173 + x182 + x194  = 0
 c25:  x208 - x216 - x218 + x223 + x232 + x244  = 0
 c26:  x258 - x266 - x268 + x273 + x282 + x294  = 0
 c27:  x308 - x316 - x318 + x323 + x332 + x344  = 0
 c28:  x358 - x366 - x368 + x373 + x382 + x394  = 0
 c29:  x408 - x416 - x418 + x423 + x432 + x444  = 0
 c30:  x458 - x466 - x468 + x473 + x482 + x494  = 0
 c31:  x3 + x24 - x43 + x47  = 0
 c32:  x53 + x74 - x93 + x97  = 0
 c33:  x103 + x124 - x143 + x147  = 0
 c34:  x153 + x174 - x193 + x197  = 0
 c35:  x203 + x224 - x243 + x247  = 0
 c36:  x253 + x274 - x293 + x297  = 0
 c37:  x303 + x324 - x343 + x347  = 0
 c38:  x353 + x374 - x393 + x397  = 0
 c39:  x403 + x424 - x443 + x447  = 0
 c40:  x453 + x474 - x493 + x497  = -1
 c41:  - x2 + x5 - x11 + x14 + x25 - x36 - x40 - x44  = 0
 c42:  - x52 + x55 - x61 + x64 + x75 - x86 - x90 - x94  = 0
 c43:  - x102 + x105 - x111 + x114 + x125 - x136 - x140 - x144  = 0
 c44:  - x152 + x155 - x161 + x164 + x175 - x186 - x190 - x194  = 0
 c45:  - x202 + x205 - x211 + x214 + x225 - x236 - x240 - x244  = -1
 c46:  - x252 + x255 - x261 + x264 + x275 - x286 - x290 - x294  = 0
 c47:  - x302 + x305 - x311 + x314 + x325 - x336 - x340 - x344  = 0
 c48:  - x352 + x355 - x361 + x364 + x375 - x386 - x390 - x394  = 0
 c49:  - x402 + x405 - x411 + x414 + x425 - x436 - x440 - x444  = 0
 c50:  - x452 + x455 - x461 + x464 + x475 - x486 - x490 - x494  = 0
 c51:  x2 - x6 - x8 - x15 + x19 - x31 - x41 + x42 + x49  = 0
 c52:  x52 - x56 - x58 - x65 + x69 - x81 - x91 + x92 + x99  = 0
 c53:  x102 - x106 - x108 - x115 + x119 - x131 - x141 + x142 + x149  = 0
 c54:  x152 - x156 - x158 - x165 + x169 - x181 - x191 + x192 + x199  = 0
 c55:  x202 - x206 - x208 - x215 + x219 - x231 - x241 + x242 + x249  = 0
 c56:  x252 - x256 - x258 - x265 + x269 - x281 - x291 + x292 + x299  = 0
 c57:  x302 - x306 - x308 - x315 + x319 - x331 - x341 + x342 + x349  = -1
 c58:  x352 - x356 - x358 - x365 + x369 - x381 - x391 + x392 + x399  = 1
 c59:  x402 - x406 - x408 - x415 + x419 - x431 - x441 + x442 + x449  = 0
 c60:  x452 - x456 - x458 - x465 + x469 - x481 - x491 + x492 + x499  = 0
 c61:  x1 + x13 - x35 - x42 - x45 - x47  = -1
 c62:  x51 + x63 - x85 - x92 - x95 - x97  = 0
 c63:  x101 + x113 - x135 - x142 - x145 - x147  = 0
 c64:  x151 + x163 - x185 - x192 - x195 - x197  = 0
 c65:  x201 + x213 - x235 - x242 - x245 - x247  = 0
 c66:  x251 + x263 - x285 - x292 - x295 - x297  = 0
 c67:  x301 + x313 - x335 - x342 - x345 - x347  = 0
 c68:  x351 + x363 - x385 - x392 - x395 - x397  = 0
 c69:  x401 + x413 - x435 - x442 - x445 - x447  = 0
 c70:  x451 + x463 - x485 - x492 - x495 - x497  = 1
 c71:  - x5 + x9 + x11 + x22 - x23 + x31 - x38 - x49  = 1
 c72:  - x55 + x59 + x61 + x72 - x73 + x81 - x88 - x99  = 0
 c73:  - x105 + x109 + x111 + x122 - x123 + x131 - x138 - x149  = 0
 c74:  - x155 + x159 + x161 + x172 - x173 + x181 - x188 - x199  = 0
 c75:  - x205 + x209 + x211 + x222 - x223 + x231 - x238 - x249  = 0
 c76:  - x255 + x259 + x261 + x272 - x273 + x281 - x288 - x299  = -1
 c77:  - x305 + x309 + x311 + x322 - x323 + x331 - x338 - x349  = 0
 c78:  - x355 + x359 + x361 + x372 - x373 + x381 - x388 - x399  = -1
 c79:  - x405 + x409 + x411 + x422 - x423 + x431 - x438 - x449  = 0
 c80:  - x455 + x459 + x461 + x472 - x473 + x481 - x488 - x499  = 0
 c81:  x6 - x13 + x16 - x22 + x29 - x34 + x35 + x36 - x46  = 0
 c82:  x56 - x63 + x66 - x72 + x79 - x84 + x85 + x86 - x96  = 0
 c83:  x106 - x113 + x116 - x122 + x129 - x134 + x135 + x136 - x146  = 0
 c84:  x156 - x163 + x166 - x172 + x179 - x184 + x185 + x186 - x196  = 1
 c85:  x206 - x213 + x216 - x222 + x229 - x234 + x235 + x236 - x246  = 0
 c86:  x256 - x263 + x266 - x272 + x279 - x284 + x285 + x286 - x296  = 0
 c87:  x306 - x313 + x316 - x322 + x329 - x334 + x335 + x336 - x346  = 0
 c88:  x356 - x363 + x366 - x372 + x379 - x384 + x385 + x386 - x396  = 0
 c89:  x406 - x413 + x416 - x422 + x429 - x434 + x435 + x436 - x446  = 1
 c90:  x456 - x463 + x466 - x472 + x479 - x484 + x485 + x486 - x496  = 0
 c91:  - x7 + x30 - x37 + x43  = 0
 c92:  - x57 + x80 - x87 + x93  = 0
 c93:  - x107 + x130 - x137 + x143  = 0
 c94:  - x157 + x180 - x187 + x193  = 0
 c95:  - x207 + x230 - x237 + x243  = 0
 c96:  - x257 + x280 - x287 + x293  = 0
 c97:  - x307 + x330 - x337 + x343  = 1
 c98:  - x357 + x380 - x387 + x393  = 0
 c99:  - x407 + x430 - x437 + x443  = 0
 c100: - x457 + x480 - x487 + x493  = 0
 c101: x20 - x24 + x28  = 0
 c102: x70 - x74 + x78  = 0
 c103: x120 - x124 + x128  = 0
 c104: x170 - x174 + x178  = 0
 c105: x220 - x224 + x228  = 0
 c106: x270 - x274 + x278  = 0
 c107: x320 - x324 + x328  = 0
 c108: x370 - x374 + x378  = 0
 c109: x420 - x424 + x428  = 0
 c110: x470 - x474 + x478  = 0
 c111: - x12 + x21 - x25 + x27 - x32 + x33 + x45 + x48  = 0
 c112: - x62 + x71 - x75 + x77 - x82 + x83 + x95 + x98  = 1
 c113: - x112 + x121 - x125 + x127 - x132 + x133 + x145 + x148  = 0
 c114: - x162 + x171 - x175 + x177 - x182 + x183 + x195 + x198  = 0
 c115: - x212 + x221 - x225 + x227 - x232 + x233 + x245 + x248  = 1
 c116: - x262 + x271 - x275 + x277 - x282 + x283 + x295 + x298  = 0
 c117: - x312 + x321 - x325 + x327 - x332 + x333 + x345 + x348  = 0
 c118: - x362 + x371 - x375 + x377 - x382 + x383 + x395 + x398  = 0
 c119: - x412 + x421 - x425 + x427 - x432 + x433 + x445 + x448  = 0
 c120: - x462 + x471 - x475 + x477 - x482 + x483 + x495 + x498  = 0
 c121: x12 - x26 - x33 - x50  = 0
 c122: x62 - x76 - x83 - x100  = 0
 c123: x112 - x126 - x133 - x150  = 1
 c124: x162 - x176 - x183 - x200  = 0
 c125: x212 - x226 - x233 - x250  = 0
 c126: x262 - x276 - x283 - x300  = 0
 c127: x312 - x326 - x333 - x350  = 0
 c128: x362 - x376 - x383 - x400  = 0
 c129: x412 - x426 - x433 - x450  = 0
 c130: x462 - x476 - x483 - x500  = 0
 c131: - x1 + x4 - x10 + x17 + x18 + x26 - x29 - x30 + x34 + x37 + x39 - x48
        = 0
 c132: - x51 + x54 - x60 + x67 + x68 + x76 - x79 - x80 + x84 + x87 + x89 - x98
        = 0
 c133: - x101 + x104 - x110 + x117 + x118 + x126 - x129 - x130 + x134 + x137
       + x139 - x148  = 0
 c134: - x151 + x154 - x160 + x167 + x168 + x176 - x179 - x180 + x184 + x187
       + x189 - x198  = 0
 c135: - x201 + x204 - x210 + x217 + x218 + x226 - x229 - x230 + x234 + x237
       + x239 - x248  = 0
 c136: - x251 + x254 - x260 + x267 + x268 + x276 - x279 - x280 + x284 + x287
       + x289 - x298  = 0
 c137: - x301 + x304 - x310 + x317 + x318 + x326 - x329 - x330 + x334 + x337
       + x339 - x348  = 0
 c138: - x351 + x354 - x360 + x367 + x368 + x376 - x379 - x380 + x384 + x387
       + x389 - x398  = 0
 c139: - x401 + x404 - x410 + x417 + x418 + x426 - x429 - x430 + x434 + x437
       + x439 - x448  = 0
 c140: - x451 + x454 - x460 + x467 + x468 + x476 - x479 - x480 + x484 + x487
       + x489 - x498  = 0
 c141: - x4 + x15 + x50  = 0
 c142: - x54 + x65 + x100  = 0
 c143: - x104 + x115 + x150  = -1
 c144: - x154 + x165 + x200  = -1
 c145: - x204 + x215 + x250  = 0
 c146: - x254 + x265 + x300  = 0
 c147: - x304 + x315 + x350  = 0
 c148: - x354 + x365 + x400  = 0
 c149: - x404 + x415 + x450  = -1
 c150: - x454 + x465 + x500  = 0
 c151: 4 x1 + 4 x51 + 4 x101 + 4 x151 + 4 x201 + 4 x251 + 4 x301 + 4 x351
       + 4 x401 + 4 x451 - 19 x501 <= 0
 c152: 4 x2 + 4 x52 + 4 x102 + 4 x152 + 4 x202 + 4 x252 + 4 x302 + 4 x352
       + 4 x402 + 4 x452 - 21 x502 <= 0
 c153: 4 x3 + 4 x53 + 4 x103 + 4 x153 + 4 x203 + 4 x253 + 4 x303 + 4 x353
       + 4 x403 + 4 x453 - 19 x503 <= 0
 c154: 4 x4 + 4 x54 + 4 x104 + 4 x154 + 4 x204 + 4 x254 + 4 x304 + 4 x354
       + 4 x404 + 4 x454 - 20 x504 <= 0
 c155: 4 x5 + 4 x55 + 4 x105 + 4 x155 + 4 x205 + 4 x255 + 4 x305 + 4 x355
       + 4 x405 + 4 x455 - 22 x505 <= 0
 c156: 4 x6 + 4 x56 + 4 x106 + 4 x156 + 4 x206 + 4 x256 + 4 x306 + 4 x356
       + 4 x406 + 4 x456 - 22 x506 <= 0
 c157: 4 x7 + 4 x57 + 4 x107 + 4 x157 + 4 x207 + 4 x257 + 4 x307 + 4 x357
       + 4 x407 + 4 x457 - 20 x507 <= 0
 c158: 4 x8 + 4 x58 + 4 x108 + 4 x158 + 4 x208 + 4 x258 + 4 x308 + 4 x358
       + 4 x408 + 4 x458 - 20 x508 <= 0
 c159: 4 x9 + 4 x59 + 4 x109 + 4 x159 + 4 x209 + 4 x259 + 4 x309 + 4 x359
       + 4 x409 + 4 x459 - 20 x509 <= 0
 c160: 4 x10 + 4 x60 + 4 x110 + 4 x160 + 4 x210 + 4 x260 + 4 x310 + 4 x360
       + 4 x410 + 4 x460 - 22 x510 <= 0
 c161: 4 x11 + 4 x61 + 4 x111 + 4 x161 + 4 x211 + 4 x261 + 4 x311 + 4 x361
       + 4 x411 + 4 x461 - 21 x511 <= 0
 c162: 4 x12 + 4 x62 + 4 x112 + 4 x162 + 4 x212 + 4 x262 + 4 x312 + 4 x362
       + 4 x412 + 4 x462 - 21 x512 <= 0
 c163: 4 x13 + 4 x63 + 4 x113 + 4 x163 + 4 x213 + 4 x263 + 4 x313 + 4 x363
       + 4 x413 + 4 x463 - 19 x513 <= 0
 c164: 4 x14 + 4 x64 + 4 x114 + 4 x164 + 4 x214 + 4 x264 + 4 x314 + 4 x364
       + 4 x414 + 4 x464 - 20 x514 <= 0
 c165: 4 x15 + 4 x65 + 4 x115 + 4 x165 + 4 x215 + 4 x265 + 4 x315 + 4 x365
       + 4 x415 + 4 x465 - 19 x515 <= 0
 c166: 4 x16 + 4 x66 + 4 x116 + 4 x166 + 4 x216 + 4 x266 + 4 x316 + 4 x366
       + 4 x416 + 4 x466 - 18 x516 <= 0
 c167: 4 x17 + 4 x67 + 4 x117 + 4 x167 + 4 x217 + 4 x267 + 4 x317 + 4 x367
       + 4 x417 + 4 x467 - 18 x517 <= 0
 c168: 4 x18 + 4 x68 + 4 x118 + 4 x168 + 4 x218 + 4 x268 + 4 x318 + 4 x368
       + 4 x418 + 4 x468 - 19 x518 <= 0
 c169: 4 x19 + 4 x69 + 4 x119 + 4 x169 + 4 x219 + 4 x269 + 4 x319 + 4 x369
       + 4 x419 + 4 x469 - 18 x519 <= 0
 c170: 4 x20 + 4 x70 + 4 x120 + 4 x170 + 4 x220 + 4 x270 + 4 x320 + 4 x370
       + 4 x420 + 4 x470 - 20 x520 <= 0
 c171: 4 x21 + 4 x71 + 4 x121 + 4 x171 + 4 x221 + 4 x271 + 4 x321 + 4 x371
       + 4 x421 + 4 x471 - 20 x521 <= 0
 c172: 4 x22 + 4 x72 + 4 x122 + 4 x172 + 4 x222 + 4 x272 + 4 x322 + 4 x372
       + 4 x422 + 4 x472 - 20 x522 <= 0
 c173: 4 x23 + 4 x73 + 4 x123 + 4 x173 + 4 x223 + 4 x273 + 4 x323 + 4 x373
       + 4 x423 + 4 x473 - 19 x523 <= 0
 c174: 4 x24 + 4 x74 + 4 x124 + 4 x174 + 4 x224 + 4 x274 + 4 x324 + 4 x374
       + 4 x424 + 4 x474 - 22 x524 <= 0
 c175: 4 x25 + 4 x75 + 4 x125 + 4 x175 + 4 x225 + 4 x275 + 4 x325 + 4 x375
       + 4 x425 + 4 x475 - 19 x525 <= 0
 c176: 4 x26 + 4 x76 + 4 x126 + 4 x176 + 4 x226 + 4 x276 + 4 x326 + 4 x376
       + 4 x426 + 4 x476 - 19 x526 <= 0
 c177: 4 x27 + 4 x77 + 4 x127 + 4 x177 + 4 x227 + 4 x277 + 4 x327 + 4 x377
       + 4 x427 + 4 x477 - 19 x527 <= 0
 c178: 4 x28 + 4 x78 + 4 x128 + 4 x178 + 4 x228 + 4 x278 + 4 x328 + 4 x378
       + 4 x428 + 4 x478 - 20 x528 <= 0
 c179: 4 x29 + 4 x79 + 4 x129 + 4 x179 + 4 x229 + 4 x279 + 4 x329 + 4 x379
       + 4 x429 + 4 x479 - 22 x529 <= 0
 c180: 4 x30 + 4 x80 + 4 x130 + 4 x180 + 4 x230 + 4 x280 + 4 x330 + 4 x380
       + 4 x430 + 4 x480 - 21 x530 <= 0
 c181: 4 x31 + 4 x81 + 4 x131 + 4 x181 + 4 x231 + 4 x281 + 4 x331 + 4 x381
       + 4 x431 + 4 x481 - 20 x531 <= 0
 c182: 4 x32 + 4 x82 + 4 x132 + 4 x182 + 4 x232 + 4 x282 + 4 x332 + 4 x382
       + 4 x432 + 4 x482 - 21 x532 <= 0
 c183: 4 x33 + 4 x83 + 4 x133 + 4 x183 + 4 x233 + 4 x283 + 4 x333 + 4 x383
       + 4 x433 + 4 x483 - 19 x533 <= 0
 c184: 4 x34 + 4 x84 + 4 x134 + 4 x184 + 4 x234 + 4 x284 + 4 x334 + 4 x384
       + 4 x434 + 4 x484 - 22 x534 <= 0
 c185: 4 x35 + 4 x85 + 4 x135 + 4 x185 + 4 x235 + 4 x285 + 4 x335 + 4 x385
       + 4 x435 + 4 x485 - 19 x535 <= 0
 c186: 4 x36 + 4 x86 + 4 x136 + 4 x186 + 4 x236 + 4 x286 + 4 x336 + 4 x386
       + 4 x436 + 4 x486 - 19 x536 <= 0
 c187: 4 x37 + 4 x87 + 4 x137 + 4 x187 + 4 x237 + 4 x287 + 4 x337 + 4 x387
       + 4 x437 + 4 x487 - 18 x537 <= 0
 c188: 4 x38 + 4 x88 + 4 x138 + 4 x188 + 4 x238 + 4 x288 + 4 x338 + 4 x388
       + 4 x438 + 4 x488 - 19 x538 <= 0
 c189: 4 x39 + 4 x89 + 4 x139 + 4 x189 + 4 x239 + 4 x289 + 4 x339 + 4 x389
       + 4 x439 + 4 x489 - 18 x539 <= 0
 c190: 4 x40 + 4 x90 + 4 x140 + 4 x190 + 4 x240 + 4 x290 + 4 x340 + 4 x390
       + 4 x440 + 4 x490 - 22 x540 <= 0
 c191: 4 x41 + 4 x91 + 4 x141 + 4 x191 + 4 x241 + 4 x291 + 4 x341 + 4 x391
       + 4 x441 + 4 x491 - 22 x541 <= 0
 c192: 4 x42 + 4 x92 + 4 x142 + 4 x192 + 4 x242 + 4 x292 + 4 x342 + 4 x392
       + 4 x442 + 4 x492 - 20 x542 <= 0
 c193: 4 x43 + 4 x93 + 4 x143 + 4 x193 + 4 x243 + 4 x293 + 4 x343 + 4 x393
       + 4 x443 + 4 x493 - 20 x543 <= 0
 c194: 4 x44 + 4 x94 + 4 x144 + 4 x194 + 4 x244 + 4 x294 + 4 x344 + 4 x394
       + 4 x444 + 4 x494 - 20 x544 <= 0
 c195: 4 x45 + 4 x95 + 4 x145 + 4 x195 + 4 x245 + 4 x295 + 4 x345 + 4 x395
       + 4 x445 + 4 x495 - 20 x545 <= 0
 c196: 4 x46 + 4 x96 + 4 x146 + 4 x196 + 4 x246 + 4 x296 + 4 x346 + 4 x396
       + 4 x446 + 4 x496 - 22 x546 <= 0
 c197: 4 x47 + 4 x97 + 4 x147 + 4 x197 + 4 x247 + 4 x297 + 4 x347 + 4 x397
       + 4 x447 + 4 x497 - 22 x547 <= 0
 c198: 4 x48 + 4 x98 + 4 x148 + 4 x198 + 4 x248 + 4 x298 + 4 x348 + 4 x398
       + 4 x448 + 4 x498 - 18 x548 <= 0
 c199: 4 x49 + 4 x99 + 4 x149 + 4 x199 + 4 x249 + 4 x299 + 4 x349 + 4 x399
       + 4 x449 + 4 x499 - 18 x549 <= 0
 c200: 4 x50 + 4 x100 + 4 x150 + 4 x200 + 4 x250 + 4 x300 + 4 x350 + 4 x400
       + 4 x450 + 4 x500 - 22 x550 <= 0
Bounds
 0 <= x1 <= 1
 0 <= x2 <= 1
 0 <= x3 <= 1
 0 <= x4 <= 1
 0 <= x5 <= 1
 0 <= x6 <= 1
 0 <= x7 <= 1
 0 <= x8 <= 1
 0 <= x9 <= 1
 0 <= x10 <= 1
 0 <= x11 <= 1
 0 <= x12 <= 1
 0 <= x13 <= 1
 0 <= x14 <= 1
 0 <= x15 <= 1
 0 <= x16 <= 1
 0 <= x17 <= 1
 0 <= x18 <= 1
 0 <= x19 <= 1
 0 <= x20 <= 1
 0 <= x21 <= 1
 0 <= x22 <= 1
 0 <= x23 <= 1
 0 <= x24 <= 1
 0 <= x25 <= 1
 0 <= x26 <= 1
 0 <= x27 <= 1
 0 <= x28 <= 1
 0 <= x29 <= 1
 0 <= x30 <= 1
 0 <= x31 <= 1
 0 <= x32 <= 1
 0 <= x33 <= 1
 0 <= x34 <= 1
 0 <= x35 <= 1
 0 <= x36 <= 1
 0 <= x37 <= 1
 0 <= x38 <= 1
 0 <= x39 <= 1
 0 <= x40 <= 1
 0 <= x41 <= 1
 0 <= x42 <= 1
 0 <= x43 <= 1
 0 <= x44 <= 1
 0 <= x45 <= 1
 0 <= x46 <= 1
 0 <= x47 <= 1
 0 <= x48 <= 1
 0 <= x49 <= 1
 0 <= x50 <= 1
 0 <= x51 <= 1
 0 <= x52 <= 1
 0 <= x53 <= 1
 0 <= x54 <= 1
 0 <= x55 <= 1
 0 <= x56 <= 1
 0 <= x57 <= 1
 0 <= x58 <= 1
 0 <= x59 <= 1
 0 <= x60 <= 1
 0 <= x61 <= 1
 0 <= x62 <= 1
 0 <= x63 <= 1
 0 <= x64 <= 1
 0 <= x65 <= 1
 0 <= x66 <= 1
 0 <= x67 <= 1
 0 <= x68 <= 1
 0 <= x69 <= 1
 0 <= x70 <= 1
 0 <= x71 <= 1
 0 <= x72 <= 1
 0 <= x73 <= 1
 0 <= x74 <= 1
 0 <= x75 <= 1
 0 <= x76 <= 1
 0 <= x77 <= 1
 0 <= x78 <= 1
 0 <= x79 <= 1
 0 <= x80 <= 1
 0 <= x81 <= 1
 0 <= x82 <= 1
 0 <= x83 <= 1
 0 <= x84 <= 1
 0 <= x85 <= 1
 0 <= x86 <= 1
 0 <= x87 <= 1
 0 <= x88 <= 1
 0 <= x89 <= 1
 0 <= x90 <= 1
 0 <= x91 <= 1
 0 <= x92 <= 1
 0 <= x93 <= 1
 0 <= x94 <= 1
 0 <= x95 <= 1
 0 <= x96 <= 1
 0 <= x97 <= 1
 0 <= x98 <= 1
 0 <= x99 <= 1
 0 <= x100 <= 1
 0 <= x101 <= 1
 0 <= x102 <= 1
 0 <= x103 <= 1
 0 <= x104 <= 1
 0 <= x105 <= 1
 0 <= x106 <= 1
 0 <= x107 <= 1
 0 <= x108 <= 1
 0 <= x109 <= 1
 0 <= x110 <= 1
 0 <= x111 <= 1
 0 <= x112 <= 1
 0 <= x113 <= 1
 0 <= x114 <= 1
 0 <= x115 <= 1
 0 <= x116 <= 1
 0 <= x117 <= 1
 0 <= x118 <= 1
 0 <= x119 <= 1
 0 <= x120 <= 1
 0 <= x121 <= 1
 0 <= x122 <= 1
 0 <= x123 <= 1
 0 <= x124 <= 1
 0 <= x125 <= 1
 0 <= x126 <= 1
 0 <= x127 <= 1
 0 <= x128 <= 1
 0 <= x129 <= 1
 0 <= x130 <= 1
 0 <= x131 <= 1
 0 <= x132 <= 1
 0 <= x133 <= 1
 0 <= x134 <= 1
 0 <= x135 <= 1
 0 <= x136 <= 1
 0 <= x137 <= 1
 0 <= x138 <= 1
 0 <= x139 <= 1
 0 <= x140 <= 1
 0 <= x141 <= 1
 0 <= x142 <= 1
 0 <= x143 <= 1
 0 <= x144 <= 1
 0 <= x145 <= 1
 0 <= x146 <= 1
 0 <= x147 <= 1
 0 <= x148 <= 1
 0 <= x149 <= 1
 0 <= x150 <= 1
 0 <= x151 <= 1
 0 <= x152 <= 1
 0 <= x153 <= 1
 0 <= x154 <= 1
 0 <= x155 <= 1
 0 <= x156 <= 1
 0 <= x157 <= 1
 0 <= x158 <= 1
 0 <= x159 <= 1
 0 <= x160 <= 1
 0 <= x161 <= 1
 0 <= x162 <= 1
 0 <= x163 <= 1
 0 <= x164 <= 1
 0 <= x165 <= 1
 0 <= x166 <= 1
 0 <= x167 <= 1
 0 <= x168 <= 1
 0 <= x169 <= 1
 0 <= x170 <= 1
 0 <= x171 <= 1
 0 <= x172 <= 1
 0 <= x173 <= 1
 0 <= x174 <= 1
 0 <= x175 <= 1
 0 <= x176 <= 1
 0 <= x177 <= 1
 0 <= x178 <= 1
 0 <= x179 <= 1
 0 <= x180 <= 1
 0 <= x181 <= 1
 0 <= x182 <= 1
 0 <= x183 <= 1
 0 <= x184 <= 1
 0 <= x185 <= 1
 0 <= x186 <= 1
 0 <= x187 <= 1
 0 <= x188 <= 1
 0 <= x189 <= 1
 0 <= x190 <= 1
 0 <= x191 <= 1
 0 <= x192 <= 1
 0 <= x193 <= 1
 0 <= x194 <= 1
 0 <= x195 <= 1
 0 <= x196 <= 1
 0 <= x197 <= 1
 0 <= x198 <= 1
 0 <= x199 <= 1
 0 <= x200 <= 1
 0 <= x201 <= 1
 0 <= x202 <= 1
 0 <= x203 <= 1
 0 <= x204 <= 1
 0 <= x205 <= 1
 0 <= x206 <= 1
 0 <= x207 <= 1
 0 <= x208 <= 1
 0 <= x209 <= 1
 0 <= x210 <= 1
 0 <= x211 <= 1
 0 <= x212 <= 1
 0 <= x213 <= 1
 0 <= x214 <= 1
 0 <= x215 <= 1
 0 <= x216 <= 1
 0 <= x217 <= 1
 0 <= x218 <= 1
 0 <= x219 <= 1
 0 <= x220 <= 1
 0 <= x221 <= 1
 0 <= x222 <= 1
 0 <= x223 <= 1
 0 <= x224 <= 1
 0 <= x225 <= 1
 0 <= x226 <= 1
 0 <= x227 <= 1
 0 <= x228 <= 1
 0 <= x229 <= 1
 0 <= x230 <= 1
 0 <= x231 <= 1
 0 <= x232 <= 1
 0 <= x233 <= 1
 0 <= x234 <= 1
 0 <= x235 <= 1
 0 <= x236 <= 1
 0 <= x237 <= 1
 0 <= x238 <= 1
 0 <= x239 <= 1
 0 <= x240 <= 1
 0 <= x241 <= 1
 0 <= x242 <= 1
 0 <= x243 <= 1
 0 <= x244 <= 1
 0 <= x245 <= 1
 0 <= x246 <= 1
 0 <= x247 <= 1
 0 <= x248 <= 1
 0 <= x249 <= 1
 0 <= x250 <= 1
 0 <= x251 <= 1
 0 <= x252 <= 1
 0 <= x253 <= 1
 0 <= x254 <= 1
 0 <= x255 <= 1
 0 <= x256 <= 1
 0 <= x257 <= 1
 0 <= x258 <= 1
 0 <= x259 <= 1
 0 <= x260 <= 1
 0 <= x261 <= 1
 0 <= x262 <= 1
 0 <= x263 <= 1
 0 <= x264 <= 1
 0 <= x265 <= 1
 0 <= x266 <= 1
 0 <= x267 <= 1
 0 <= x268 <= 1
 0 <= x269 <= 1
 0 <= x270 <= 1
 0 <= x271 <= 1
 0 <= x272 <= 1
 0 <= x273 <= 1
 0 <= x274 <= 1
 0 <= x275 <= 1
 0 <= x276 <= 1
 0 <= x277 <= 1
 0 <= x278 <= 1
 0 <= x279 <= 1
 0 <= x280 <= 1
 0 <= x281 <= 1
 0 <= x282 <= 1
 0 <= x283 <= 1
 0 <= x284 <= 1
 0 <= x285 <= 1
 0 <= x286 <= 1
 0 <= x287 <= 1
 0 <= x288 <= 1
 0 <= x289 <= 1
 0 <= x290 <= 1
 0 <= x291 <= 1
 0 <= x292 <= 1
 0 <= x293 <= 1
 0 <= x294 <= 1
 0 <= x295 <= 1
 0 <= x296 <= 1
 0 <= x297 <= 1
 0 <= x298 <= 1
 0 <= x299 <= 1
 0 <= x300 <= 1
 0 <= x301 <= 1
 0 <= x302 <= 1
 0 <= x303 <= 1
 0 <= x304 <= 1
 0 <= x305 <= 1
 0 <= x306 <= 1
 0 <= x307 <= 1
 0 <= x308 <= 1
 0 <= x309 <= 1
 0 <= x310 <= 1
 0 <= x311 <= 1
 0 <= x312 <= 1
 0 <= x313 <= 1
 0 <= x314 <= 1
 0 <= x315 <= 1
 0 <= x316 <= 1
 0 <= x317 <= 1
 0 <= x318 <= 1
 0 <= x319 <= 1
 0 <= x320 <= 1
 0 <= x321 <= 1
 0 <= x322 <= 1
 0 <= x323 <= 1
 0 <= x324 <= 1
 0 <= x325 <= 1
 0 <= x326 <= 1
 0 <= x327 <= 1
 0 <= x328 <= 1
 0 <= x329 <= 1
 0 <= x330 <= 1
 0 <= x331 <= 1
 0 <= x332 <= 1
 0 <= x333 <= 1
 0 <= x334 <= 1
 0 <= x335 <= 1
 0 <= x336 <= 1
 0 <= x337 <= 1
 0 <= x338 <= 1
 0 <= x339 <= 1
 0 <= x340 <= 1
 0 <= x341 <= 1
 0 <= x342 <= 1
 0 <= x343 <= 1
 0 <= x344 <= 1
 0 <= x345 <= 1
 0 <= x346 <= 1
 0 <= x347 <= 1
 0 <= x348 <= 1
 0 <= x349 <= 1
 0 <= x350 <= 1
 0 <= x351 <= 1
 0 <= x352 <= 1
 0 <= x353 <= 1
 0 <= x354 <= 1
 0 <= x355 <= 1
 0 <= x356 <= 1
 0 <= x357 <= 1
 0 <= x358 <= 1
 0 <= x359 <= 1
 0 <= x360 <= 1
 0 <= x361 <= 1
 0 <= x362 <= 1
 0 <= x363 <= 1
 0 <= x364 <= 1
 0 <= x365 <= 1
 0 <= x366 <= 1
 0 <= x367 <= 1
 0 <= x368 <= 1
 0 <= x369 <= 1
 0 <= x370 <= 1
 0 <= x371 <= 1
 0 <= x372 <= 1
 0 <= x373 <= 1
 0 <= x374 <= 1
 0 <= x375 <= 1
 0 <= x376 <= 1
 0 <= x377 <= 1
 0 <= x378 <= 1
 0 <= x379 <= 1
 0 <= x380 <= 1
 0 <= x381 <= 1
 0 <= x382 <= 1
 0 <= x383 <= 1
 0 <= x384 <= 1
 0 <= x385 <= 1
 0 <= x386 <= 1
 0 <= x387 <= 1
 0 <= x388 <= 1
 0 <= x389 <= 1
 0 <= x390 <= 1
 0 <= x391 <= 1
 0 <= x392 <= 1
 0 <= x393 <= 1
 0 <= x394 <= 1
 0 <= x395 <= 1
 0 <= x396 <= 1
 0 <= x397 <= 1
 0 <= x398 <= 1
 0 <= x399 <= 1
 0 <= x400 <= 1
 0 <= x401 <= 1
 0 <= x402 <= 1
 0 <= x403 <= 1
 0 <= x404 <= 1
 0 <= x405 <= 1
 0 <= x406 <= 1
 0 <= x407 <= 1
 0 <= x408 <= 1
 0 <= x409 <= 1
 0 <= x410 <= 1
 0 <= x411 <= 1
 0 <= x412 <= 1
 0 <= x413 <= 1
 0 <= x414 <= 1
 0 <= x415 <= 1
 0 <= x416 <= 1
 0 <= x417 <= 1
 0 <= x418 <= 1
 0 <= x419 <= 1
 0 <= x420 <= 1
 0 <= x421 <= 1
 0 <= x422 <= 1
 0 <= x423 <= 1
 0 <= x424 <= 1
 0 <= x425 <= 1
 0 <= x426 <= 1
 0 <= x427 <= 1
 0 <= x428 <= 1
 0 <= x429 <= 1
 0 <= x430 <= 1
 0 <= x431 <= 1
 0 <= x432 <= 1
 0 <= x433 <= 1
 0 <= x434 <= 1
 0 <= x435 <= 1
 0 <= x436 <= 1
 0 <= x437 <= 1
 0 <= x438 <= 1
 0 <= x439 <= 1
 0 <= x440 <= 1
 0 <= x441 <= 1
 0 <= x442 <= 1
 0 <= x443 <= 1
 0 <= x444 <= 1
 0 <= x445 <= 1
 0 <= x446 <= 1
 0 <= x447 <= 1
 0 <= x448 <= 1
 0 <= x449 <= 1
 0 <= x450 <= 1
 0 <= x451 <= 1
 0 <= x452 <= 1
 0 <= x453 <= 1
 0 <= x454 <= 1
 0 <= x455 <= 1
 0 <= x456 <= 1
 0 <= x457 <= 1
 0 <= x458 <= 1
 0 <= x459 <= 1
 0 <= x460 <= 1
 0 <= x461 <= 1
 0 <= x462 <= 1
 0 <= x463 <= 1
 0 <= x464 <= 1
 0 <= x465 <= 1
 0 <= x466 <= 1
 0 <= x467 <= 1
 0 <= x468 <= 1
 0 <= x469 <= 1
 0 <= x470 <= 1
 0 <= x471 <= 1
 0 <= x472 <= 1
 0 <= x473 <= 1
 0 <= x474 <= 1
 0 <= x475 <= 1
 0 <= x476 <= 1
 0 <= x477 <= 1
 0 <= x478 <= 1
 0 <= x479 <= 1
 0 <= x480 <= 1
 0 <= x481 <= 1
 0 <= x482 <= 1
 0 <= x483 <= 1
 0 <= x484 <= 1
 0 <= x485 <= 1
 0 <= x486 <= 1
 0 <= x487 <= 1
 0 <= x488 <= 1
 0 <= x489 <= 1
 0 <= x490 <= 1
 0 <= x491 <= 1
 0 <= x492 <= 1
 0 <= x493 <= 1
 0 <= x494 <= 1
 0 <= x495 <= 1
 0 <= x496 <= 1
 0 <= x497 <= 1
 0 <= x498 <= 1
 0 <= x499 <= 1
 0 <= x500 <= 1
 0 <= x501 <= 1
 0 <= x502 <= 1
 0 <= x503 <= 1
 0 <= x504 <= 1
 0 <= x505 <= 1
 0 <= x506 <= 1
 0 <= x507 <= 1
 0 <= x508 <= 1
 0 <= x509 <= 1
 0 <= x510 <= 1
 0 <= x511 <= 1
 0 <= x512 <= 1
 0 <= x513 <= 1
 0 <= x514 <= 1
 0 <= x515 <= 1
 0 <= x516 <= 1
 0 <= x517 <= 1
 0 <= x518 <= 1
 0 <= x519 <= 1
 0 <= x520 <= 1
 0 <= x521 <= 1
 0 <= x522 <= 1
 0 <= x523 <= 1
 0 <= x524 <= 1
 0 <= x525 <= 1
 0 <= x526 <= 1
 0 <= x527 <= 1
 0 <= x528 <= 1
 0 <= x529 <= 1
 0 <= x530 <= 1
 0 <= x531 <= 1
 0 <= x532 <= 1
 0 <= x533 <= 1
 0 <= x534 <= 1
 0 <= x535 <= 1
 0 <= x536 <= 1
 0 <= x537 <= 1
 0 <= x538 <= 1
 0 <= x539 <= 1
 0 <= x540 <= 1
 0 <= x541 <= 1
 0 <= x542 <= 1
 0 <= x543 <= 1
 0 <= x544 <= 1
 0 <= x545 <= 1
 0 <= x546 <= 1
 0 <= x547 <= 1
 0 <= x548 <= 1
 0 <= x549 <= 1
 0 <= x550 <= 1
Binaries
 x501  x502  x503  x504  x505  x506  x507  x508  x509  x510  x511  x512  x513 
 x514  x515  x516  x517  x518  x519  x520  x521  x522  x523  x524  x525  x526 
 x527  x528  x529  x530  x531  x532  x533  x534  x535  x536  x537  x538  x539 
 x540  x541  x542  x543  x544  x545  x546  x547  x548  x549  x550 
End
